(set-logic QF_S)
(declare-fun _var_0xINPUT_124868_() String)
(declare-fun __woorpje_diseq_pref0_() String)
(declare-fun __woorpje_diseq_suf_l0_() String)
(declare-fun __woorpje_diseq_suf_r0_() String)
(declare-fun __woorpje_diseq_pref1_() String)
(declare-fun __woorpje_diseq_suf_l1_() String)
(declare-fun __woorpje_diseq_suf_r1_() String)
(declare-fun __woorpje_diseq_pref2_() String)
(declare-fun __woorpje_diseq_suf_l2_() String)
(declare-fun __woorpje_diseq_suf_r2_() String)
(declare-fun __woorpje_diseq_pref3_() String)
(declare-fun __woorpje_diseq_suf_l3_() String)
(declare-fun __woorpje_diseq_suf_r3_() String)
(declare-fun __woorpje_diseq_pref4_() String)
(declare-fun __woorpje_diseq_suf_l4_() String)
(declare-fun __woorpje_diseq_suf_r4_() String)
(assert (=(str.++  "o7E1eVAEe3" "")(str.++ __woorpje_diseq_pref0_  "o" __woorpje_diseq_suf_l0_  "")) )
(assert (=(str.++ _var_0xINPUT_124868_  "")(str.++ __woorpje_diseq_pref0_  "A" __woorpje_diseq_suf_r0_  "")) )
(assert (=(str.++ _var_0xINPUT_124868_  "")(str.++ __woorpje_diseq_pref3_  "o" __woorpje_diseq_suf_l3_  "")) )
(assert (=(str.++  "AA1ND6MEXd" "")(str.++ __woorpje_diseq_pref3_  "d" __woorpje_diseq_suf_r3_  "")) )
(assert (=(str.++ _var_0xINPUT_124868_  "")(str.++ __woorpje_diseq_pref3_  "o" __woorpje_diseq_suf_l3_  "")) )
(assert (=(str.++  "AA1ND6MEXd" "")(str.++ __woorpje_diseq_pref3_  "d" __woorpje_diseq_suf_r3_  "")) )
(assert  (<= (* (str.len _var_0xINPUT_124868_)(- 1)) (- 1)) )
(assert  (<= (* (str.len _var_0xINPUT_124868_)(- 1)) (- 11)) )
(assert  (<= (* (str.len _var_0xINPUT_124868_)(- 1)) (- 1)) )
(check-sat)
